g3 1 1 0	# problem unknown
 6 200 1 0 0 	# vars, constraints, objectives, ranges, eqns
 200 1 0 0 0 0	# nonlinear constrs, objs; ccons: lin, nonlin, nd, nzlb
 0 0	# network constraints: nonlinear, linear
 6 3 3 	# nonlinear vars in constraints, objectives, both
 0 0 0 1	# linear network variables; functions; arith, flags
 0 0 0 0 0 	# discrete variables: binary, integer, nonlinear (b,c,o)
 1100 3 	# nonzeros in Jacobian, obj. gradient
 0 0	# max name lengths: constraints, variables
 0 0 0 0 0	# common exprs: b,c,o,c1,o1
C0
o54
3
o5
o54
3
v3
o2
o2
v1
v0
o46
v5
n-0.544
n2
o5
o54
3
v4
o2
o2
v1
v0
o41
v5
n-0.492
n2
o2
n-1
o5
o0
v0
v2
n2
C1
o54
3
o5
o54
3
v3
o2
o2
v1
v0
o46
v5
n-0.714
n2
o5
o54
3
v4
o2
o2
v1
v0
o41
v5
n-0.505
n2
o2
n-1
o5
o0
v0
v2
n2
C2
o54
3
o5
o54
3
v3
o2
o2
v1
v0
o46
v5
n-0.594
n2
o5
o54
3
v4
o2
o2
v1
v0
o41
v5
n-0.094
n2
o2
n-1
o5
o0
v0
v2
n2
C3
o54
3
o5
o54
3
v3
o2
o2
v1
v0
o46
v5
n-0.474
n2
o5
o54
3
v4
o2
o2
v1
v0
o41
v5
n-0.398
n2
o2
n-1
o5
o0
v0
v2
n2
C4
o54
3
o5
o54
3
v3
o2
o2
v1
v0
o46
v5
n-0.47
n2
o5
o54
3
v4
o2
o2
v1
v0
o41
v5
n-0.804
n2
o2
n-1
o5
o0
v0
v2
n2
C5
o54
3
o5
o54
3
v3
o2
o2
v1
v0
o46
v5
n-0.241
n2
o5
o54
3
v4
o2
o2
v1
v0
o41
v5
n-0.955
n2
o2
n-1
o5
o0
v0
v2
n2
C6
o54
3
o5
o54
3
v3
o2
o2
v1
v0
o46
v5
n-0.503
n2
o5
o54
3
v4
o2
o2
v1
v0
o41
v5
n-0.097
n2
o2
n-1
o5
o0
v0
v2
n2
C7
o54
3
o5
o54
3
v3
o2
o2
v1
v0
o46
v5
n-0.854
n2
o5
o54
3
v4
o2
o2
v1
v0
o41
v5
n-0.359
n2
o2
n-1
o5
o0
v0
v2
n2
C8
o54
3
o5
o54
3
v3
o2
o2
v1
v0
o46
v5
n-0.438
n2
o5
o54
3
v4
o2
o2
v1
v0
o41
v5
n-0.477
n2
o2
n-1
o5
o0
v0
v2
n2
C9
o54
3
o5
o54
3
v3
o2
o2
v1
v0
o46
v5
n-0.294
n2
o5
o54
3
v4
o2
o2
v1
v0
o41
v5
n-0.887
n2
o2
n-1
o5
o0
v0
v2
n2
C10
o54
3
o5
o54
3
v3
o2
o2
v1
v0
o46
v5
n-0.479
n2
o5
o54
3
v4
o2
o2
v1
v0
o41
v5
n-0.372
n2
o2
n-1
o5
o0
v0
v2
n2
C11
o54
3
o5
o54
3
v3
o2
o2
v1
v0
o46
v5
n-0.413
n2
o5
o54
3
v4
o2
o2
v1
v0
o41
v5
n-0.911
n2
o2
n-1
o5
o0
v0
v2
n2
C12
o54
3
o5
o54
3
v3
o2
o2
v1
v0
o46
v5
n-0.722
n2
o5
o54
3
v4
o2
o2
v1
v0
o41
v5
n-0.082
n2
o2
n-1
o5
o0
v0
v2
n2
C13
o54
3
o5
o54
3
v3
o2
o2
v1
v0
o46
v5
n-0.358
n2
o5
o54
3
v4
o2
o2
v1
v0
o41
v5
n-0.788
n2
o2
n-1
o5
o0
v0
v2
n2
C14
o54
3
o5
o54
3
v3
o2
o2
v1
v0
o46
v5
n-0.836
n2
o5
o54
3
v4
o2
o2
v1
v0
o41
v5
n-0.225
n2
o2
n-1
o5
o0
v0
v2
n2
C15
o54
3
o5
o54
3
v3
o2
o2
v1
v0
o46
v5
n-0.648
n2
o5
o54
3
v4
o2
o2
v1
v0
o41
v5
n-0.424
n2
o2
n-1
o5
o0
v0
v2
n2
C16
o54
3
o5
o54
3
v3
o2
o2
v1
v0
o46
v5
n-0.267
n2
o5
o54
3
v4
o2
o2
v1
v0
o41
v5
n-0.932
n2
o2
n-1
o5
o0
v0
v2
n2
C17
o54
3
o5
o54
3
v3
o2
o2
v1
v0
o46
v5
n-0.362
n2
o5
o54
3
v4
o2
o2
v1
v0
o41
v5
n-0.697
n2
o2
n-1
o5
o0
v0
v2
n2
C18
o54
3
o5
o54
3
v3
o2
o2
v1
v0
o46
v5
n-0.232
n2
o5
o54
3
v4
o2
o2
v1
v0
o41
v5
n-0.969
n2
o2
n-1
o5
o0
v0
v2
n2
C19
o54
3
o5
o54
3
v3
o2
o2
v1
v0
o46
v5
n-0.667
n2
o5
o54
3
v4
o2
o2
v1
v0
o41
v5
n-0.527
n2
o2
n-1
o5
o0
v0
v2
n2
C20
o54
3
o5
o54
3
v3
o2
o2
v1
v0
o46
v5
n-0.476
n2
o5
o54
3
v4
o2
o2
v1
v0
o41
v5
n-0.735
n2
o2
n-1
o5
o0
v0
v2
n2
C21
o54
3
o5
o54
3
v3
o2
o2
v1
v0
o46
v5
n-0.868
n2
o5
o54
3
v4
o2
o2
v1
v0
o41
v5
n-0.141
n2
o2
n-1
o5
o0
v0
v2
n2
C22
o54
3
o5
o54
3
v3
o2
o2
v1
v0
o46
v5
n-0.603
n2
o5
o54
3
v4
o2
o2
v1
v0
o41
v5
n-0.55
n2
o2
n-1
o5
o0
v0
v2
n2
C23
o54
3
o5
o54
3
v3
o2
o2
v1
v0
o46
v5
n-0.788
n2
o5
o54
3
v4
o2
o2
v1
v0
o41
v5
n-0.399
n2
o2
n-1
o5
o0
v0
v2
n2
C24
o54
3
o5
o54
3
v3
o2
o2
v1
v0
o46
v5
n-0.745
n2
o5
o54
3
v4
o2
o2
v1
v0
o41
v5
n-0.365
n2
o2
n-1
o5
o0
v0
v2
n2
C25
o54
3
o5
o54
3
v3
o2
o2
v1
v0
o46
v5
n-0.627
n2
o5
o54
3
v4
o2
o2
v1
v0
o41
v5
n-0.762
n2
o2
n-1
o5
o0
v0
v2
n2
C26
o54
3
o5
o54
3
v3
o2
o2
v1
v0
o46
v5
n-0.394
n2
o5
o54
3
v4
o2
o2
v1
v0
o41
v5
n-0.779
n2
o2
n-1
o5
o0
v0
v2
n2
C27
o54
3
o5
o54
3
v3
o2
o2
v1
v0
o46
v5
n-0.22
n2
o5
o54
3
v4
o2
o2
v1
v0
o41
v5
n-0.869
n2
o2
n-1
o5
o0
v0
v2
n2
C28
o54
3
o5
o54
3
v3
o2
o2
v1
v0
o46
v5
n-0.548
n2
o5
o54
3
v4
o2
o2
v1
v0
o41
v5
n-0.625
n2
o2
n-1
o5
o0
v0
v2
n2
C29
o54
3
o5
o54
3
v3
o2
o2
v1
v0
o46
v5
n-0.446
n2
o5
o54
3
v4
o2
o2
v1
v0
o41
v5
n-0.778
n2
o2
n-1
o5
o0
v0
v2
n2
C30
o54
3
o5
o54
3
v3
o2
o2
v1
v0
o46
v5
n-0.463
n2
o5
o54
3
v4
o2
o2
v1
v0
o41
v5
n-0.762
n2
o2
n-1
o5
o0
v0
v2
n2
C31
o54
3
o5
o54
3
v3
o2
o2
v1
v0
o46
v5
n-0.541
n2
o5
o54
3
v4
o2
o2
v1
v0
o41
v5
n-0.068
n2
o2
n-1
o5
o0
v0
v2
n2
C32
o54
3
o5
o54
3
v3
o2
o2
v1
v0
o46
v5
n-0.631
n2
o5
o54
3
v4
o2
o2
v1
v0
o41
v5
n-0.67
n2
o2
n-1
o5
o0
v0
v2
n2
C33
o54
3
o5
o54
3
v3
o2
o2
v1
v0
o46
v5
n-0.735
n2
o5
o54
3
v4
o2
o2
v1
v0
o41
v5
n-0.151
n2
o2
n-1
o5
o0
v0
v2
n2
C34
o54
3
o5
o54
3
v3
o2
o2
v1
v0
o46
v5
n-0.674
n2
o5
o54
3
v4
o2
o2
v1
v0
o41
v5
n-0.49
n2
o2
n-1
o5
o0
v0
v2
n2
C35
o54
3
o5
o54
3
v3
o2
o2
v1
v0
o46
v5
n-0.62
n2
o5
o54
3
v4
o2
o2
v1
v0
o41
v5
n-0.565
n2
o2
n-1
o5
o0
v0
v2
n2
C36
o54
3
o5
o54
3
v3
o2
o2
v1
v0
o46
v5
n-0.257
n2
o5
o54
3
v4
o2
o2
v1
v0
o41
v5
n-0.862
n2
o2
n-1
o5
o0
v0
v2
n2
C37
o54
3
o5
o54
3
v3
o2
o2
v1
v0
o46
v5
n-0.659
n2
o5
o54
3
v4
o2
o2
v1
v0
o41
v5
n-0.01
n2
o2
n-1
o5
o0
v0
v2
n2
C38
o54
3
o5
o54
3
v3
o2
o2
v1
v0
o46
v5
n-0.475
n2
o5
o54
3
v4
o2
o2
v1
v0
o41
v5
n-0.585
n2
o2
n-1
o5
o0
v0
v2
n2
C39
o54
3
o5
o54
3
v3
o2
o2
v1
v0
o46
v5
n-0.708
n2
o5
o54
3
v4
o2
o2
v1
v0
o41
v5
n-0.475
n2
o2
n-1
o5
o0
v0
v2
n2
C40
o54
3
o5
o54
3
v3
o2
o2
v1
v0
o46
v5
n-0.545
n2
o5
o54
3
v4
o2
o2
v1
v0
o41
v5
n-0.371
n2
o2
n-1
o5
o0
v0
v2
n2
C41
o54
3
o5
o54
3
v3
o2
o2
v1
v0
o46
v5
n-0.586
n2
o5
o54
3
v4
o2
o2
v1
v0
o41
v5
n-0.085
n2
o2
n-1
o5
o0
v0
v2
n2
C42
o54
3
o5
o54
3
v3
o2
o2
v1
v0
o46
v5
n-0.796
n2
o5
o54
3
v4
o2
o2
v1
v0
o41
v5
n-0.309
n2
o2
n-1
o5
o0
v0
v2
n2
C43
o54
3
o5
o54
3
v3
o2
o2
v1
v0
o46
v5
n-0.525
n2
o5
o54
3
v4
o2
o2
v1
v0
o41
v5
n-0.573
n2
o2
n-1
o5
o0
v0
v2
n2
C44
o54
3
o5
o54
3
v3
o2
o2
v1
v0
o46
v5
n-0.498
n2
o5
o54
3
v4
o2
o2
v1
v0
o41
v5
n-0.53
n2
o2
n-1
o5
o0
v0
v2
n2
C45
o54
3
o5
o54
3
v3
o2
o2
v1
v0
o46
v5
n-0.79
n2
o5
o54
3
v4
o2
o2
v1
v0
o41
v5
n-0.217
n2
o2
n-1
o5
o0
v0
v2
n2
C46
o54
3
o5
o54
3
v3
o2
o2
v1
v0
o46
v5
n-0.632
n2
o5
o54
3
v4
o2
o2
v1
v0
o41
v5
n-0.169
n2
o2
n-1
o5
o0
v0
v2
n2
C47
o54
3
o5
o54
3
v3
o2
o2
v1
v0
o46
v5
n-0.699
n2
o5
o54
3
v4
o2
o2
v1
v0
o41
v5
n-0.024
n2
o2
n-1
o5
o0
v0
v2
n2
C48
o54
3
o5
o54
3
v3
o2
o2
v1
v0
o46
v5
n-0.758
n2
o5
o54
3
v4
o2
o2
v1
v0
o41
v5
n-0.436
n2
o2
n-1
o5
o0
v0
v2
n2
C49
o54
3
o5
o54
3
v3
o2
o2
v1
v0
o46
v5
n-0.656
n2
o5
o54
3
v4
o2
o2
v1
v0
o41
v5
n-0.662
n2
o2
n-1
o5
o0
v0
v2
n2
C50
o54
3
o5
o54
3
v3
o2
o2
v1
v0
o46
v5
n-0.652
n2
o5
o54
3
v4
o2
o2
v1
v0
o41
v5
n-0.251
n2
o2
n-1
o5
o0
v0
v2
n2
C51
o54
3
o5
o54
3
v3
o2
o2
v1
v0
o46
v5
n-0.801
n2
o5
o54
3
v4
o2
o2
v1
v0
o41
v5
n-0.511
n2
o2
n-1
o5
o0
v0
v2
n2
C52
o54
3
o5
o54
3
v3
o2
o2
v1
v0
o46
v5
n-0.73
n2
o5
o54
3
v4
o2
o2
v1
v0
o41
v5
n-0.611
n2
o2
n-1
o5
o0
v0
v2
n2
C53
o54
3
o5
o54
3
v3
o2
o2
v1
v0
o46
v5
n-0.689
n2
o5
o54
3
v4
o2
o2
v1
v0
o41
v5
n-0.277
n2
o2
n-1
o5
o0
v0
v2
n2
C54
o54
3
o5
o54
3
v3
o2
o2
v1
v0
o46
v5
n-0.527
n2
o5
o54
3
v4
o2
o2
v1
v0
o41
v5
n-0.612
n2
o2
n-1
o5
o0
v0
v2
n2
C55
o54
3
o5
o54
3
v3
o2
o2
v1
v0
o46
v5
n-0.696
n2
o5
o54
3
v4
o2
o2
v1
v0
o41
v5
n-0.074
n2
o2
n-1
o5
o0
v0
v2
n2
C56
o54
3
o5
o54
3
v3
o2
o2
v1
v0
o46
v5
n-0.911
n2
o5
o54
3
v4
o2
o2
v1
v0
o41
v5
n-0.052
n2
o2
n-1
o5
o0
v0
v2
n2
C57
o54
3
o5
o54
3
v3
o2
o2
v1
v0
o46
v5
n-0.805
n2
o5
o54
3
v4
o2
o2
v1
v0
o41
v5
n-0.075
n2
o2
n-1
o5
o0
v0
v2
n2
C58
o54
3
o5
o54
3
v3
o2
o2
v1
v0
o46
v5
n-0.764
n2
o5
o54
3
v4
o2
o2
v1
v0
o41
v5
n-0.067
n2
o2
n-1
o5
o0
v0
v2
n2
C59
o54
3
o5
o54
3
v3
o2
o2
v1
v0
o46
v5
n-0.331
n2
o5
o54
3
v4
o2
o2
v1
v0
o41
v5
n-0.759
n2
o2
n-1
o5
o0
v0
v2
n2
C60
o54
3
o5
o54
3
v3
o2
o2
v1
v0
o46
v5
n-0.078
n2
o5
o54
3
v4
o2
o2
v1
v0
o41
v5
n-0.983
n2
o2
n-1
o5
o0
v0
v2
n2
C61
o54
3
o5
o54
3
v3
o2
o2
v1
v0
o46
v5
n-0.656
n2
o5
o54
3
v4
o2
o2
v1
v0
o41
v5
n-0.34
n2
o2
n-1
o5
o0
v0
v2
n2
C62
o54
3
o5
o54
3
v3
o2
o2
v1
v0
o46
v5
n-0.48
n2
o5
o54
3
v4
o2
o2
v1
v0
o41
v5
n-0.232
n2
o2
n-1
o5
o0
v0
v2
n2
C63
o54
3
o5
o54
3
v3
o2
o2
v1
v0
o46
v5
n-0.503
n2
o5
o54
3
v4
o2
o2
v1
v0
o41
v5
n-0.14
n2
o2
n-1
o5
o0
v0
v2
n2
C64
o54
3
o5
o54
3
v3
o2
o2
v1
v0
o46
v5
n-0.412
n2
o5
o54
3
v4
o2
o2
v1
v0
o41
v5
n-0.683
n2
o2
n-1
o5
o0
v0
v2
n2
C65
o54
3
o5
o54
3
v3
o2
o2
v1
v0
o46
v5
n-0.338
n2
o5
o54
3
v4
o2
o2
v1
v0
o41
v5
n-0.624
n2
o2
n-1
o5
o0
v0
v2
n2
C66
o54
3
o5
o54
3
v3
o2
o2
v1
v0
o46
v5
n-0.92
n2
o5
o54
3
v4
o2
o2
v1
v0
o41
v5
n-0.139
n2
o2
n-1
o5
o0
v0
v2
n2
C67
o54
3
o5
o54
3
v3
o2
o2
v1
v0
o46
v5
n-0.548
n2
o5
o54
3
v4
o2
o2
v1
v0
o41
v5
n-0.474
n2
o2
n-1
o5
o0
v0
v2
n2
C68
o54
3
o5
o54
3
v3
o2
o2
v1
v0
o46
v5
n-0.826
n2
o5
o54
3
v4
o2
o2
v1
v0
o41
v5
n-0.443
n2
o2
n-1
o5
o0
v0
v2
n2
C69
o54
3
o5
o54
3
v3
o2
o2
v1
v0
o46
v5
n-0.071
n2
o5
o54
3
v4
o2
o2
v1
v0
o41
v5
n-0.969
n2
o2
n-1
o5
o0
v0
v2
n2
C70
o54
3
o5
o54
3
v3
o2
o2
v1
v0
o46
v5
n-0.635
n2
o5
o54
3
v4
o2
o2
v1
v0
o41
v5
n-0.728
n2
o2
n-1
o5
o0
v0
v2
n2
C71
o54
3
o5
o54
3
v3
o2
o2
v1
v0
o46
v5
n-0.591
n2
o5
o54
3
v4
o2
o2
v1
v0
o41
v5
n-0.57
n2
o2
n-1
o5
o0
v0
v2
n2
C72
o54
3
o5
o54
3
v3
o2
o2
v1
v0
o46
v5
n-0.489
n2
o5
o54
3
v4
o2
o2
v1
v0
o41
v5
n-0.427
n2
o2
n-1
o5
o0
v0
v2
n2
C73
o54
3
o5
o54
3
v3
o2
o2
v1
v0
o46
v5
n-0.565
n2
o5
o54
3
v4
o2
o2
v1
v0
o41
v5
n-0.105
n2
o2
n-1
o5
o0
v0
v2
n2
C74
o54
3
o5
o54
3
v3
o2
o2
v1
v0
o46
v5
n-0.791
n2
o5
o54
3
v4
o2
o2
v1
v0
o41
v5
n-0.554
n2
o2
n-1
o5
o0
v0
v2
n2
C75
o54
3
o5
o54
3
v3
o2
o2
v1
v0
o46
v5
n-0.725
n2
o5
o54
3
v4
o2
o2
v1
v0
o41
v5
n-0.174
n2
o2
n-1
o5
o0
v0
v2
n2
C76
o54
3
o5
o54
3
v3
o2
o2
v1
v0
o46
v5
n-0.091
n2
o5
o54
3
v4
o2
o2
v1
v0
o41
v5
n-0.951
n2
o2
n-1
o5
o0
v0
v2
n2
C77
o54
3
o5
o54
3
v3
o2
o2
v1
v0
o46
v5
n-0.401
n2
o5
o54
3
v4
o2
o2
v1
v0
o41
v5
n-0.79
n2
o2
n-1
o5
o0
v0
v2
n2
C78
o54
3
o5
o54
3
v3
o2
o2
v1
v0
o46
v5
n-0.226
n2
o5
o54
3
v4
o2
o2
v1
v0
o41
v5
n-0.968
n2
o2
n-1
o5
o0
v0
v2
n2
C79
o54
3
o5
o54
3
v3
o2
o2
v1
v0
o46
v5
n-0.518
n2
o5
o54
3
v4
o2
o2
v1
v0
o41
v5
n-0.663
n2
o2
n-1
o5
o0
v0
v2
n2
C80
o54
3
o5
o54
3
v3
o2
o2
v1
v0
o46
v5
n-0.651
n2
o5
o54
3
v4
o2
o2
v1
v0
o41
v5
n-0.166
n2
o2
n-1
o5
o0
v0
v2
n2
C81
o54
3
o5
o54
3
v3
o2
o2
v1
v0
o46
v5
n-0.738
n2
o5
o54
3
v4
o2
o2
v1
v0
o41
v5
n-0.146
n2
o2
n-1
o5
o0
v0
v2
n2
C82
o54
3
o5
o54
3
v3
o2
o2
v1
v0
o46
v5
n-0.509
n2
o5
o54
3
v4
o2
o2
v1
v0
o41
v5
n-0.28
n2
o2
n-1
o5
o0
v0
v2
n2
C83
o54
3
o5
o54
3
v3
o2
o2
v1
v0
o46
v5
n-0.833
n2
o5
o54
3
v4
o2
o2
v1
v0
o41
v5
n-0.176
n2
o2
n-1
o5
o0
v0
v2
n2
C84
o54
3
o5
o54
3
v3
o2
o2
v1
v0
o46
v5
n-0.669
n2
o5
o54
3
v4
o2
o2
v1
v0
o41
v5
n-0.044
n2
o2
n-1
o5
o0
v0
v2
n2
C85
o54
3
o5
o54
3
v3
o2
o2
v1
v0
o46
v5
n-0.121
n2
o5
o54
3
v4
o2
o2
v1
v0
o41
v5
n-0.921
n2
o2
n-1
o5
o0
v0
v2
n2
C86
o54
3
o5
o54
3
v3
o2
o2
v1
v0
o46
v5
n-0.809
n2
o5
o54
3
v4
o2
o2
v1
v0
o41
v5
n-0.458
n2
o2
n-1
o5
o0
v0
v2
n2
C87
o54
3
o5
o54
3
v3
o2
o2
v1
v0
o46
v5
n-0.477
n2
o5
o54
3
v4
o2
o2
v1
v0
o41
v5
n-0.436
n2
o2
n-1
o5
o0
v0
v2
n2
C88
o54
3
o5
o54
3
v3
o2
o2
v1
v0
o46
v5
n-0.267
n2
o5
o54
3
v4
o2
o2
v1
v0
o41
v5
n-0.84
n2
o2
n-1
o5
o0
v0
v2
n2
C89
o54
3
o5
o54
3
v3
o2
o2
v1
v0
o46
v5
n-0.412
n2
o5
o54
3
v4
o2
o2
v1
v0
o41
v5
n-0.63
n2
o2
n-1
o5
o0
v0
v2
n2
C90
o54
3
o5
o54
3
v3
o2
o2
v1
v0
o46
v5
n-0.663
n2
o5
o54
3
v4
o2
o2
v1
v0
o41
v5
n-0.648
n2
o2
n-1
o5
o0
v0
v2
n2
C91
o54
3
o5
o54
3
v3
o2
o2
v1
v0
o46
v5
n-0.83
n2
o5
o54
3
v4
o2
o2
v1
v0
o41
v5
n-0.086
n2
o2
n-1
o5
o0
v0
v2
n2
C92
o54
3
o5
o54
3
v3
o2
o2
v1
v0
o46
v5
n-0.324
n2
o5
o54
3
v4
o2
o2
v1
v0
o41
v5
n-0.862
n2
o2
n-1
o5
o0
v0
v2
n2
C93
o54
3
o5
o54
3
v3
o2
o2
v1
v0
o46
v5
n-0.225
n2
o5
o54
3
v4
o2
o2
v1
v0
o41
v5
n-0.853
n2
o2
n-1
o5
o0
v0
v2
n2
C94
o54
3
o5
o54
3
v3
o2
o2
v1
v0
o46
v5
n-0.87
n2
o5
o54
3
v4
o2
o2
v1
v0
o41
v5
n-0.331
n2
o2
n-1
o5
o0
v0
v2
n2
C95
o54
3
o5
o54
3
v3
o2
o2
v1
v0
o46
v5
n-0.343
n2
o5
o54
3
v4
o2
o2
v1
v0
o41
v5
n-0.629
n2
o2
n-1
o5
o0
v0
v2
n2
C96
o54
3
o5
o54
3
v3
o2
o2
v1
v0
o46
v5
n-0.849
n2
o5
o54
3
v4
o2
o2
v1
v0
o41
v5
n-0.521
n2
o2
n-1
o5
o0
v0
v2
n2
C97
o54
3
o5
o54
3
v3
o2
o2
v1
v0
o46
v5
n-0.655
n2
o5
o54
3
v4
o2
o2
v1
v0
o41
v5
n-0.714
n2
o2
n-1
o5
o0
v0
v2
n2
C98
o54
3
o5
o54
3
v3
o2
o2
v1
v0
o46
v5
n-0.558
n2
o5
o54
3
v4
o2
o2
v1
v0
o41
v5
n-0.005
n2
o2
n-1
o5
o0
v0
v2
n2
C99
o54
3
o5
o54
3
v3
o2
o2
v1
v0
o46
v5
n-0.83
n2
o5
o54
3
v4
o2
o2
v1
v0
o41
v5
n-0.526
n2
o2
n-1
o5
o0
v0
v2
n2
C100
o54
3
o5
o0
v3
n-0.544
n2
o5
o0
v4
n-0.492
n2
o2
n-1
o5
o0
o2
v1
v0
v2
n2
C101
o54
3
o5
o0
v3
n-0.714
n2
o5
o0
v4
n-0.505
n2
o2
n-1
o5
o0
o2
v1
v0
v2
n2
C102
o54
3
o5
o0
v3
n-0.594
n2
o5
o0
v4
n-0.094
n2
o2
n-1
o5
o0
o2
v1
v0
v2
n2
C103
o54
3
o5
o0
v3
n-0.474
n2
o5
o0
v4
n-0.398
n2
o2
n-1
o5
o0
o2
v1
v0
v2
n2
C104
o54
3
o5
o0
v3
n-0.47
n2
o5
o0
v4
n-0.804
n2
o2
n-1
o5
o0
o2
v1
v0
v2
n2
C105
o54
3
o5
o0
v3
n-0.241
n2
o5
o0
v4
n-0.955
n2
o2
n-1
o5
o0
o2
v1
v0
v2
n2
C106
o54
3
o5
o0
v3
n-0.503
n2
o5
o0
v4
n-0.097
n2
o2
n-1
o5
o0
o2
v1
v0
v2
n2
C107
o54
3
o5
o0
v3
n-0.854
n2
o5
o0
v4
n-0.359
n2
o2
n-1
o5
o0
o2
v1
v0
v2
n2
C108
o54
3
o5
o0
v3
n-0.438
n2
o5
o0
v4
n-0.477
n2
o2
n-1
o5
o0
o2
v1
v0
v2
n2
C109
o54
3
o5
o0
v3
n-0.294
n2
o5
o0
v4
n-0.887
n2
o2
n-1
o5
o0
o2
v1
v0
v2
n2
C110
o54
3
o5
o0
v3
n-0.479
n2
o5
o0
v4
n-0.372
n2
o2
n-1
o5
o0
o2
v1
v0
v2
n2
C111
o54
3
o5
o0
v3
n-0.413
n2
o5
o0
v4
n-0.911
n2
o2
n-1
o5
o0
o2
v1
v0
v2
n2
C112
o54
3
o5
o0
v3
n-0.722
n2
o5
o0
v4
n-0.082
n2
o2
n-1
o5
o0
o2
v1
v0
v2
n2
C113
o54
3
o5
o0
v3
n-0.358
n2
o5
o0
v4
n-0.788
n2
o2
n-1
o5
o0
o2
v1
v0
v2
n2
C114
o54
3
o5
o0
v3
n-0.836
n2
o5
o0
v4
n-0.225
n2
o2
n-1
o5
o0
o2
v1
v0
v2
n2
C115
o54
3
o5
o0
v3
n-0.648
n2
o5
o0
v4
n-0.424
n2
o2
n-1
o5
o0
o2
v1
v0
v2
n2
C116
o54
3
o5
o0
v3
n-0.267
n2
o5
o0
v4
n-0.932
n2
o2
n-1
o5
o0
o2
v1
v0
v2
n2
C117
o54
3
o5
o0
v3
n-0.362
n2
o5
o0
v4
n-0.697
n2
o2
n-1
o5
o0
o2
v1
v0
v2
n2
C118
o54
3
o5
o0
v3
n-0.232
n2
o5
o0
v4
n-0.969
n2
o2
n-1
o5
o0
o2
v1
v0
v2
n2
C119
o54
3
o5
o0
v3
n-0.667
n2
o5
o0
v4
n-0.527
n2
o2
n-1
o5
o0
o2
v1
v0
v2
n2
C120
o54
3
o5
o0
v3
n-0.476
n2
o5
o0
v4
n-0.735
n2
o2
n-1
o5
o0
o2
v1
v0
v2
n2
C121
o54
3
o5
o0
v3
n-0.868
n2
o5
o0
v4
n-0.141
n2
o2
n-1
o5
o0
o2
v1
v0
v2
n2
C122
o54
3
o5
o0
v3
n-0.603
n2
o5
o0
v4
n-0.55
n2
o2
n-1
o5
o0
o2
v1
v0
v2
n2
C123
o54
3
o5
o0
v3
n-0.788
n2
o5
o0
v4
n-0.399
n2
o2
n-1
o5
o0
o2
v1
v0
v2
n2
C124
o54
3
o5
o0
v3
n-0.745
n2
o5
o0
v4
n-0.365
n2
o2
n-1
o5
o0
o2
v1
v0
v2
n2
C125
o54
3
o5
o0
v3
n-0.627
n2
o5
o0
v4
n-0.762
n2
o2
n-1
o5
o0
o2
v1
v0
v2
n2
C126
o54
3
o5
o0
v3
n-0.394
n2
o5
o0
v4
n-0.779
n2
o2
n-1
o5
o0
o2
v1
v0
v2
n2
C127
o54
3
o5
o0
v3
n-0.22
n2
o5
o0
v4
n-0.869
n2
o2
n-1
o5
o0
o2
v1
v0
v2
n2
C128
o54
3
o5
o0
v3
n-0.548
n2
o5
o0
v4
n-0.625
n2
o2
n-1
o5
o0
o2
v1
v0
v2
n2
C129
o54
3
o5
o0
v3
n-0.446
n2
o5
o0
v4
n-0.778
n2
o2
n-1
o5
o0
o2
v1
v0
v2
n2
C130
o54
3
o5
o0
v3
n-0.463
n2
o5
o0
v4
n-0.762
n2
o2
n-1
o5
o0
o2
v1
v0
v2
n2
C131
o54
3
o5
o0
v3
n-0.541
n2
o5
o0
v4
n-0.068
n2
o2
n-1
o5
o0
o2
v1
v0
v2
n2
C132
o54
3
o5
o0
v3
n-0.631
n2
o5
o0
v4
n-0.67
n2
o2
n-1
o5
o0
o2
v1
v0
v2
n2
C133
o54
3
o5
o0
v3
n-0.735
n2
o5
o0
v4
n-0.151
n2
o2
n-1
o5
o0
o2
v1
v0
v2
n2
C134
o54
3
o5
o0
v3
n-0.674
n2
o5
o0
v4
n-0.49
n2
o2
n-1
o5
o0
o2
v1
v0
v2
n2
C135
o54
3
o5
o0
v3
n-0.62
n2
o5
o0
v4
n-0.565
n2
o2
n-1
o5
o0
o2
v1
v0
v2
n2
C136
o54
3
o5
o0
v3
n-0.257
n2
o5
o0
v4
n-0.862
n2
o2
n-1
o5
o0
o2
v1
v0
v2
n2
C137
o54
3
o5
o0
v3
n-0.659
n2
o5
o0
v4
n-0.01
n2
o2
n-1
o5
o0
o2
v1
v0
v2
n2
C138
o54
3
o5
o0
v3
n-0.475
n2
o5
o0
v4
n-0.585
n2
o2
n-1
o5
o0
o2
v1
v0
v2
n2
C139
o54
3
o5
o0
v3
n-0.708
n2
o5
o0
v4
n-0.475
n2
o2
n-1
o5
o0
o2
v1
v0
v2
n2
C140
o54
3
o5
o0
v3
n-0.545
n2
o5
o0
v4
n-0.371
n2
o2
n-1
o5
o0
o2
v1
v0
v2
n2
C141
o54
3
o5
o0
v3
n-0.586
n2
o5
o0
v4
n-0.085
n2
o2
n-1
o5
o0
o2
v1
v0
v2
n2
C142
o54
3
o5
o0
v3
n-0.796
n2
o5
o0
v4
n-0.309
n2
o2
n-1
o5
o0
o2
v1
v0
v2
n2
C143
o54
3
o5
o0
v3
n-0.525
n2
o5
o0
v4
n-0.573
n2
o2
n-1
o5
o0
o2
v1
v0
v2
n2
C144
o54
3
o5
o0
v3
n-0.498
n2
o5
o0
v4
n-0.53
n2
o2
n-1
o5
o0
o2
v1
v0
v2
n2
C145
o54
3
o5
o0
v3
n-0.79
n2
o5
o0
v4
n-0.217
n2
o2
n-1
o5
o0
o2
v1
v0
v2
n2
C146
o54
3
o5
o0
v3
n-0.632
n2
o5
o0
v4
n-0.169
n2
o2
n-1
o5
o0
o2
v1
v0
v2
n2
C147
o54
3
o5
o0
v3
n-0.699
n2
o5
o0
v4
n-0.024
n2
o2
n-1
o5
o0
o2
v1
v0
v2
n2
C148
o54
3
o5
o0
v3
n-0.758
n2
o5
o0
v4
n-0.436
n2
o2
n-1
o5
o0
o2
v1
v0
v2
n2
C149
o54
3
o5
o0
v3
n-0.656
n2
o5
o0
v4
n-0.662
n2
o2
n-1
o5
o0
o2
v1
v0
v2
n2
C150
o54
3
o5
o0
v3
n-0.652
n2
o5
o0
v4
n-0.251
n2
o2
n-1
o5
o0
o2
v1
v0
v2
n2
C151
o54
3
o5
o0
v3
n-0.801
n2
o5
o0
v4
n-0.511
n2
o2
n-1
o5
o0
o2
v1
v0
v2
n2
C152
o54
3
o5
o0
v3
n-0.73
n2
o5
o0
v4
n-0.611
n2
o2
n-1
o5
o0
o2
v1
v0
v2
n2
C153
o54
3
o5
o0
v3
n-0.689
n2
o5
o0
v4
n-0.277
n2
o2
n-1
o5
o0
o2
v1
v0
v2
n2
C154
o54
3
o5
o0
v3
n-0.527
n2
o5
o0
v4
n-0.612
n2
o2
n-1
o5
o0
o2
v1
v0
v2
n2
C155
o54
3
o5
o0
v3
n-0.696
n2
o5
o0
v4
n-0.074
n2
o2
n-1
o5
o0
o2
v1
v0
v2
n2
C156
o54
3
o5
o0
v3
n-0.911
n2
o5
o0
v4
n-0.052
n2
o2
n-1
o5
o0
o2
v1
v0
v2
n2
C157
o54
3
o5
o0
v3
n-0.805
n2
o5
o0
v4
n-0.075
n2
o2
n-1
o5
o0
o2
v1
v0
v2
n2
C158
o54
3
o5
o0
v3
n-0.764
n2
o5
o0
v4
n-0.067
n2
o2
n-1
o5
o0
o2
v1
v0
v2
n2
C159
o54
3
o5
o0
v3
n-0.331
n2
o5
o0
v4
n-0.759
n2
o2
n-1
o5
o0
o2
v1
v0
v2
n2
C160
o54
3
o5
o0
v3
n-0.078
n2
o5
o0
v4
n-0.983
n2
o2
n-1
o5
o0
o2
v1
v0
v2
n2
C161
o54
3
o5
o0
v3
n-0.656
n2
o5
o0
v4
n-0.34
n2
o2
n-1
o5
o0
o2
v1
v0
v2
n2
C162
o54
3
o5
o0
v3
n-0.48
n2
o5
o0
v4
n-0.232
n2
o2
n-1
o5
o0
o2
v1
v0
v2
n2
C163
o54
3
o5
o0
v3
n-0.503
n2
o5
o0
v4
n-0.14
n2
o2
n-1
o5
o0
o2
v1
v0
v2
n2
C164
o54
3
o5
o0
v3
n-0.412
n2
o5
o0
v4
n-0.683
n2
o2
n-1
o5
o0
o2
v1
v0
v2
n2
C165
o54
3
o5
o0
v3
n-0.338
n2
o5
o0
v4
n-0.624
n2
o2
n-1
o5
o0
o2
v1
v0
v2
n2
C166
o54
3
o5
o0
v3
n-0.92
n2
o5
o0
v4
n-0.139
n2
o2
n-1
o5
o0
o2
v1
v0
v2
n2
C167
o54
3
o5
o0
v3
n-0.548
n2
o5
o0
v4
n-0.474
n2
o2
n-1
o5
o0
o2
v1
v0
v2
n2
C168
o54
3
o5
o0
v3
n-0.826
n2
o5
o0
v4
n-0.443
n2
o2
n-1
o5
o0
o2
v1
v0
v2
n2
C169
o54
3
o5
o0
v3
n-0.071
n2
o5
o0
v4
n-0.969
n2
o2
n-1
o5
o0
o2
v1
v0
v2
n2
C170
o54
3
o5
o0
v3
n-0.635
n2
o5
o0
v4
n-0.728
n2
o2
n-1
o5
o0
o2
v1
v0
v2
n2
C171
o54
3
o5
o0
v3
n-0.591
n2
o5
o0
v4
n-0.57
n2
o2
n-1
o5
o0
o2
v1
v0
v2
n2
C172
o54
3
o5
o0
v3
n-0.489
n2
o5
o0
v4
n-0.427
n2
o2
n-1
o5
o0
o2
v1
v0
v2
n2
C173
o54
3
o5
o0
v3
n-0.565
n2
o5
o0
v4
n-0.105
n2
o2
n-1
o5
o0
o2
v1
v0
v2
n2
C174
o54
3
o5
o0
v3
n-0.791
n2
o5
o0
v4
n-0.554
n2
o2
n-1
o5
o0
o2
v1
v0
v2
n2
C175
o54
3
o5
o0
v3
n-0.725
n2
o5
o0
v4
n-0.174
n2
o2
n-1
o5
o0
o2
v1
v0
v2
n2
C176
o54
3
o5
o0
v3
n-0.091
n2
o5
o0
v4
n-0.951
n2
o2
n-1
o5
o0
o2
v1
v0
v2
n2
C177
o54
3
o5
o0
v3
n-0.401
n2
o5
o0
v4
n-0.79
n2
o2
n-1
o5
o0
o2
v1
v0
v2
n2
C178
o54
3
o5
o0
v3
n-0.226
n2
o5
o0
v4
n-0.968
n2
o2
n-1
o5
o0
o2
v1
v0
v2
n2
C179
o54
3
o5
o0
v3
n-0.518
n2
o5
o0
v4
n-0.663
n2
o2
n-1
o5
o0
o2
v1
v0
v2
n2
C180
o54
3
o5
o0
v3
n-0.651
n2
o5
o0
v4
n-0.166
n2
o2
n-1
o5
o0
o2
v1
v0
v2
n2
C181
o54
3
o5
o0
v3
n-0.738
n2
o5
o0
v4
n-0.146
n2
o2
n-1
o5
o0
o2
v1
v0
v2
n2
C182
o54
3
o5
o0
v3
n-0.509
n2
o5
o0
v4
n-0.28
n2
o2
n-1
o5
o0
o2
v1
v0
v2
n2
C183
o54
3
o5
o0
v3
n-0.833
n2
o5
o0
v4
n-0.176
n2
o2
n-1
o5
o0
o2
v1
v0
v2
n2
C184
o54
3
o5
o0
v3
n-0.669
n2
o5
o0
v4
n-0.044
n2
o2
n-1
o5
o0
o2
v1
v0
v2
n2
C185
o54
3
o5
o0
v3
n-0.121
n2
o5
o0
v4
n-0.921
n2
o2
n-1
o5
o0
o2
v1
v0
v2
n2
C186
o54
3
o5
o0
v3
n-0.809
n2
o5
o0
v4
n-0.458
n2
o2
n-1
o5
o0
o2
v1
v0
v2
n2
C187
o54
3
o5
o0
v3
n-0.477
n2
o5
o0
v4
n-0.436
n2
o2
n-1
o5
o0
o2
v1
v0
v2
n2
C188
o54
3
o5
o0
v3
n-0.267
n2
o5
o0
v4
n-0.84
n2
o2
n-1
o5
o0
o2
v1
v0
v2
n2
C189
o54
3
o5
o0
v3
n-0.412
n2
o5
o0
v4
n-0.63
n2
o2
n-1
o5
o0
o2
v1
v0
v2
n2
C190
o54
3
o5
o0
v3
n-0.663
n2
o5
o0
v4
n-0.648
n2
o2
n-1
o5
o0
o2
v1
v0
v2
n2
C191
o54
3
o5
o0
v3
n-0.83
n2
o5
o0
v4
n-0.086
n2
o2
n-1
o5
o0
o2
v1
v0
v2
n2
C192
o54
3
o5
o0
v3
n-0.324
n2
o5
o0
v4
n-0.862
n2
o2
n-1
o5
o0
o2
v1
v0
v2
n2
C193
o54
3
o5
o0
v3
n-0.225
n2
o5
o0
v4
n-0.853
n2
o2
n-1
o5
o0
o2
v1
v0
v2
n2
C194
o54
3
o5
o0
v3
n-0.87
n2
o5
o0
v4
n-0.331
n2
o2
n-1
o5
o0
o2
v1
v0
v2
n2
C195
o54
3
o5
o0
v3
n-0.343
n2
o5
o0
v4
n-0.629
n2
o2
n-1
o5
o0
o2
v1
v0
v2
n2
C196
o54
3
o5
o0
v3
n-0.849
n2
o5
o0
v4
n-0.521
n2
o2
n-1
o5
o0
o2
v1
v0
v2
n2
C197
o54
3
o5
o0
v3
n-0.655
n2
o5
o0
v4
n-0.714
n2
o2
n-1
o5
o0
o2
v1
v0
v2
n2
C198
o54
3
o5
o0
v3
n-0.558
n2
o5
o0
v4
n-0.005
n2
o2
n-1
o5
o0
o2
v1
v0
v2
n2
C199
o54
3
o5
o0
v3
n-0.83
n2
o5
o0
v4
n-0.526
n2
o2
n-1
o5
o0
o2
v1
v0
v2
n2
O0 0
o54
3
o2
o5
o0
v0
v2
n2
o53
o3
o16
o54
3
o5
o2
v1
v0
n2
o16
o5
o0
o2
v1
v0
v2
n2
o5
o0
v0
v2
n2
o2
o2
o2
n2
o0
v0
v2
v1
v0
o2
n-1
o2
o5
o0
o2
v1
v0
v2
n2
o53
o3
o54
3
o5
o2
v1
v0
n2
o5
o0
o2
v1
v0
v2
n2
o16
o5
o0
v0
v2
n2
o2
o2
o2
n2
o0
o2
v1
v0
v2
v1
v0
o2
o2
o2
o0
v0
v2
v1
v0
o41
o53
o3
o16
o54
3
o5
o2
v1
v0
n2
o16
o5
o0
o2
v1
v0
v2
n2
o5
o0
v0
v2
n2
o2
o2
o2
n2
o0
v0
v2
v1
v0
x6
0 1.0
1 2.0
2 0.75
3 -40.0
4 5.0
5 1.5
r
1 0.0
1 0.0
1 0.0
1 0.0
1 0.0
1 0.0
1 0.0
1 0.0
1 0.0
1 0.0
1 0.0
1 0.0
1 0.0
1 0.0
1 0.0
1 0.0
1 0.0
1 0.0
1 0.0
1 0.0
1 0.0
1 0.0
1 0.0
1 0.0
1 0.0
1 0.0
1 0.0
1 0.0
1 0.0
1 0.0
1 0.0
1 0.0
1 0.0
1 0.0
1 0.0
1 0.0
1 0.0
1 0.0
1 0.0
1 0.0
1 0.0
1 0.0
1 0.0
1 0.0
1 0.0
1 0.0
1 0.0
1 0.0
1 0.0
1 0.0
1 0.0
1 0.0
1 0.0
1 0.0
1 0.0
1 0.0
1 0.0
1 0.0
1 0.0
1 0.0
1 0.0
1 0.0
1 0.0
1 0.0
1 0.0
1 0.0
1 0.0
1 0.0
1 0.0
1 0.0
1 0.0
1 0.0
1 0.0
1 0.0
1 0.0
1 0.0
1 0.0
1 0.0
1 0.0
1 0.0
1 0.0
1 0.0
1 0.0
1 0.0
1 0.0
1 0.0
1 0.0
1 0.0
1 0.0
1 0.0
1 0.0
1 0.0
1 0.0
1 0.0
1 0.0
1 0.0
1 0.0
1 0.0
1 0.0
1 0.0
2 0.0
2 0.0
2 0.0
2 0.0
2 0.0
2 0.0
2 0.0
2 0.0
2 0.0
2 0.0
2 0.0
2 0.0
2 0.0
2 0.0
2 0.0
2 0.0
2 0.0
2 0.0
2 0.0
2 0.0
2 0.0
2 0.0
2 0.0
2 0.0
2 0.0
2 0.0
2 0.0
2 0.0
2 0.0
2 0.0
2 0.0
2 0.0
2 0.0
2 0.0
2 0.0
2 0.0
2 0.0
2 0.0
2 0.0
2 0.0
2 0.0
2 0.0
2 0.0
2 0.0
2 0.0
2 0.0
2 0.0
2 0.0
2 0.0
2 0.0
2 0.0
2 0.0
2 0.0
2 0.0
2 0.0
2 0.0
2 0.0
2 0.0
2 0.0
2 0.0
2 0.0
2 0.0
2 0.0
2 0.0
2 0.0
2 0.0
2 0.0
2 0.0
2 0.0
2 0.0
2 0.0
2 0.0
2 0.0
2 0.0
2 0.0
2 0.0
2 0.0
2 0.0
2 0.0
2 0.0
2 0.0
2 0.0
2 0.0
2 0.0
2 0.0
2 0.0
2 0.0
2 0.0
2 0.0
2 0.0
2 0.0
2 0.0
2 0.0
2 0.0
2 0.0
2 0.0
2 0.0
2 0.0
2 0.0
2 0.0
b
2 1e-08
2 1.0
2 0.39
3
3
0 0.0 6.2831852
k5
200
400
600
800
1000
J0 6
3 0
4 0
0 0
1 0
5 0
2 0
J1 6
3 0
4 0
0 0
1 0
5 0
2 0
J2 6
3 0
4 0
0 0
1 0
5 0
2 0
J3 6
3 0
4 0
0 0
1 0
5 0
2 0
J4 6
3 0
4 0
0 0
1 0
5 0
2 0
J5 6
3 0
4 0
0 0
1 0
5 0
2 0
J6 6
3 0
4 0
0 0
1 0
5 0
2 0
J7 6
3 0
4 0
0 0
1 0
5 0
2 0
J8 6
3 0
4 0
0 0
1 0
5 0
2 0
J9 6
3 0
4 0
0 0
1 0
5 0
2 0
J10 6
3 0
4 0
0 0
1 0
5 0
2 0
J11 6
3 0
4 0
0 0
1 0
5 0
2 0
J12 6
3 0
4 0
0 0
1 0
5 0
2 0
J13 6
3 0
4 0
0 0
1 0
5 0
2 0
J14 6
3 0
4 0
0 0
1 0
5 0
2 0
J15 6
3 0
4 0
0 0
1 0
5 0
2 0
J16 6
3 0
4 0
0 0
1 0
5 0
2 0
J17 6
3 0
4 0
0 0
1 0
5 0
2 0
J18 6
3 0
4 0
0 0
1 0
5 0
2 0
J19 6
3 0
4 0
0 0
1 0
5 0
2 0
J20 6
3 0
4 0
0 0
1 0
5 0
2 0
J21 6
3 0
4 0
0 0
1 0
5 0
2 0
J22 6
3 0
4 0
0 0
1 0
5 0
2 0
J23 6
3 0
4 0
0 0
1 0
5 0
2 0
J24 6
3 0
4 0
0 0
1 0
5 0
2 0
J25 6
3 0
4 0
0 0
1 0
5 0
2 0
J26 6
3 0
4 0
0 0
1 0
5 0
2 0
J27 6
3 0
4 0
0 0
1 0
5 0
2 0
J28 6
3 0
4 0
0 0
1 0
5 0
2 0
J29 6
3 0
4 0
0 0
1 0
5 0
2 0
J30 6
3 0
4 0
0 0
1 0
5 0
2 0
J31 6
3 0
4 0
0 0
1 0
5 0
2 0
J32 6
3 0
4 0
0 0
1 0
5 0
2 0
J33 6
3 0
4 0
0 0
1 0
5 0
2 0
J34 6
3 0
4 0
0 0
1 0
5 0
2 0
J35 6
3 0
4 0
0 0
1 0
5 0
2 0
J36 6
3 0
4 0
0 0
1 0
5 0
2 0
J37 6
3 0
4 0
0 0
1 0
5 0
2 0
J38 6
3 0
4 0
0 0
1 0
5 0
2 0
J39 6
3 0
4 0
0 0
1 0
5 0
2 0
J40 6
3 0
4 0
0 0
1 0
5 0
2 0
J41 6
3 0
4 0
0 0
1 0
5 0
2 0
J42 6
3 0
4 0
0 0
1 0
5 0
2 0
J43 6
3 0
4 0
0 0
1 0
5 0
2 0
J44 6
3 0
4 0
0 0
1 0
5 0
2 0
J45 6
3 0
4 0
0 0
1 0
5 0
2 0
J46 6
3 0
4 0
0 0
1 0
5 0
2 0
J47 6
3 0
4 0
0 0
1 0
5 0
2 0
J48 6
3 0
4 0
0 0
1 0
5 0
2 0
J49 6
3 0
4 0
0 0
1 0
5 0
2 0
J50 6
3 0
4 0
0 0
1 0
5 0
2 0
J51 6
3 0
4 0
0 0
1 0
5 0
2 0
J52 6
3 0
4 0
0 0
1 0
5 0
2 0
J53 6
3 0
4 0
0 0
1 0
5 0
2 0
J54 6
3 0
4 0
0 0
1 0
5 0
2 0
J55 6
3 0
4 0
0 0
1 0
5 0
2 0
J56 6
3 0
4 0
0 0
1 0
5 0
2 0
J57 6
3 0
4 0
0 0
1 0
5 0
2 0
J58 6
3 0
4 0
0 0
1 0
5 0
2 0
J59 6
3 0
4 0
0 0
1 0
5 0
2 0
J60 6
3 0
4 0
0 0
1 0
5 0
2 0
J61 6
3 0
4 0
0 0
1 0
5 0
2 0
J62 6
3 0
4 0
0 0
1 0
5 0
2 0
J63 6
3 0
4 0
0 0
1 0
5 0
2 0
J64 6
3 0
4 0
0 0
1 0
5 0
2 0
J65 6
3 0
4 0
0 0
1 0
5 0
2 0
J66 6
3 0
4 0
0 0
1 0
5 0
2 0
J67 6
3 0
4 0
0 0
1 0
5 0
2 0
J68 6
3 0
4 0
0 0
1 0
5 0
2 0
J69 6
3 0
4 0
0 0
1 0
5 0
2 0
J70 6
3 0
4 0
0 0
1 0
5 0
2 0
J71 6
3 0
4 0
0 0
1 0
5 0
2 0
J72 6
3 0
4 0
0 0
1 0
5 0
2 0
J73 6
3 0
4 0
0 0
1 0
5 0
2 0
J74 6
3 0
4 0
0 0
1 0
5 0
2 0
J75 6
3 0
4 0
0 0
1 0
5 0
2 0
J76 6
3 0
4 0
0 0
1 0
5 0
2 0
J77 6
3 0
4 0
0 0
1 0
5 0
2 0
J78 6
3 0
4 0
0 0
1 0
5 0
2 0
J79 6
3 0
4 0
0 0
1 0
5 0
2 0
J80 6
3 0
4 0
0 0
1 0
5 0
2 0
J81 6
3 0
4 0
0 0
1 0
5 0
2 0
J82 6
3 0
4 0
0 0
1 0
5 0
2 0
J83 6
3 0
4 0
0 0
1 0
5 0
2 0
J84 6
3 0
4 0
0 0
1 0
5 0
2 0
J85 6
3 0
4 0
0 0
1 0
5 0
2 0
J86 6
3 0
4 0
0 0
1 0
5 0
2 0
J87 6
3 0
4 0
0 0
1 0
5 0
2 0
J88 6
3 0
4 0
0 0
1 0
5 0
2 0
J89 6
3 0
4 0
0 0
1 0
5 0
2 0
J90 6
3 0
4 0
0 0
1 0
5 0
2 0
J91 6
3 0
4 0
0 0
1 0
5 0
2 0
J92 6
3 0
4 0
0 0
1 0
5 0
2 0
J93 6
3 0
4 0
0 0
1 0
5 0
2 0
J94 6
3 0
4 0
0 0
1 0
5 0
2 0
J95 6
3 0
4 0
0 0
1 0
5 0
2 0
J96 6
3 0
4 0
0 0
1 0
5 0
2 0
J97 6
3 0
4 0
0 0
1 0
5 0
2 0
J98 6
3 0
4 0
0 0
1 0
5 0
2 0
J99 6
3 0
4 0
0 0
1 0
5 0
2 0
J100 5
3 0
4 0
0 0
1 0
2 0
J101 5
3 0
4 0
0 0
1 0
2 0
J102 5
3 0
4 0
0 0
1 0
2 0
J103 5
3 0
4 0
0 0
1 0
2 0
J104 5
3 0
4 0
0 0
1 0
2 0
J105 5
3 0
4 0
0 0
1 0
2 0
J106 5
3 0
4 0
0 0
1 0
2 0
J107 5
3 0
4 0
0 0
1 0
2 0
J108 5
3 0
4 0
0 0
1 0
2 0
J109 5
3 0
4 0
0 0
1 0
2 0
J110 5
3 0
4 0
0 0
1 0
2 0
J111 5
3 0
4 0
0 0
1 0
2 0
J112 5
3 0
4 0
0 0
1 0
2 0
J113 5
3 0
4 0
0 0
1 0
2 0
J114 5
3 0
4 0
0 0
1 0
2 0
J115 5
3 0
4 0
0 0
1 0
2 0
J116 5
3 0
4 0
0 0
1 0
2 0
J117 5
3 0
4 0
0 0
1 0
2 0
J118 5
3 0
4 0
0 0
1 0
2 0
J119 5
3 0
4 0
0 0
1 0
2 0
J120 5
3 0
4 0
0 0
1 0
2 0
J121 5
3 0
4 0
0 0
1 0
2 0
J122 5
3 0
4 0
0 0
1 0
2 0
J123 5
3 0
4 0
0 0
1 0
2 0
J124 5
3 0
4 0
0 0
1 0
2 0
J125 5
3 0
4 0
0 0
1 0
2 0
J126 5
3 0
4 0
0 0
1 0
2 0
J127 5
3 0
4 0
0 0
1 0
2 0
J128 5
3 0
4 0
0 0
1 0
2 0
J129 5
3 0
4 0
0 0
1 0
2 0
J130 5
3 0
4 0
0 0
1 0
2 0
J131 5
3 0
4 0
0 0
1 0
2 0
J132 5
3 0
4 0
0 0
1 0
2 0
J133 5
3 0
4 0
0 0
1 0
2 0
J134 5
3 0
4 0
0 0
1 0
2 0
J135 5
3 0
4 0
0 0
1 0
2 0
J136 5
3 0
4 0
0 0
1 0
2 0
J137 5
3 0
4 0
0 0
1 0
2 0
J138 5
3 0
4 0
0 0
1 0
2 0
J139 5
3 0
4 0
0 0
1 0
2 0
J140 5
3 0
4 0
0 0
1 0
2 0
J141 5
3 0
4 0
0 0
1 0
2 0
J142 5
3 0
4 0
0 0
1 0
2 0
J143 5
3 0
4 0
0 0
1 0
2 0
J144 5
3 0
4 0
0 0
1 0
2 0
J145 5
3 0
4 0
0 0
1 0
2 0
J146 5
3 0
4 0
0 0
1 0
2 0
J147 5
3 0
4 0
0 0
1 0
2 0
J148 5
3 0
4 0
0 0
1 0
2 0
J149 5
3 0
4 0
0 0
1 0
2 0
J150 5
3 0
4 0
0 0
1 0
2 0
J151 5
3 0
4 0
0 0
1 0
2 0
J152 5
3 0
4 0
0 0
1 0
2 0
J153 5
3 0
4 0
0 0
1 0
2 0
J154 5
3 0
4 0
0 0
1 0
2 0
J155 5
3 0
4 0
0 0
1 0
2 0
J156 5
3 0
4 0
0 0
1 0
2 0
J157 5
3 0
4 0
0 0
1 0
2 0
J158 5
3 0
4 0
0 0
1 0
2 0
J159 5
3 0
4 0
0 0
1 0
2 0
J160 5
3 0
4 0
0 0
1 0
2 0
J161 5
3 0
4 0
0 0
1 0
2 0
J162 5
3 0
4 0
0 0
1 0
2 0
J163 5
3 0
4 0
0 0
1 0
2 0
J164 5
3 0
4 0
0 0
1 0
2 0
J165 5
3 0
4 0
0 0
1 0
2 0
J166 5
3 0
4 0
0 0
1 0
2 0
J167 5
3 0
4 0
0 0
1 0
2 0
J168 5
3 0
4 0
0 0
1 0
2 0
J169 5
3 0
4 0
0 0
1 0
2 0
J170 5
3 0
4 0
0 0
1 0
2 0
J171 5
3 0
4 0
0 0
1 0
2 0
J172 5
3 0
4 0
0 0
1 0
2 0
J173 5
3 0
4 0
0 0
1 0
2 0
J174 5
3 0
4 0
0 0
1 0
2 0
J175 5
3 0
4 0
0 0
1 0
2 0
J176 5
3 0
4 0
0 0
1 0
2 0
J177 5
3 0
4 0
0 0
1 0
2 0
J178 5
3 0
4 0
0 0
1 0
2 0
J179 5
3 0
4 0
0 0
1 0
2 0
J180 5
3 0
4 0
0 0
1 0
2 0
J181 5
3 0
4 0
0 0
1 0
2 0
J182 5
3 0
4 0
0 0
1 0
2 0
J183 5
3 0
4 0
0 0
1 0
2 0
J184 5
3 0
4 0
0 0
1 0
2 0
J185 5
3 0
4 0
0 0
1 0
2 0
J186 5
3 0
4 0
0 0
1 0
2 0
J187 5
3 0
4 0
0 0
1 0
2 0
J188 5
3 0
4 0
0 0
1 0
2 0
J189 5
3 0
4 0
0 0
1 0
2 0
J190 5
3 0
4 0
0 0
1 0
2 0
J191 5
3 0
4 0
0 0
1 0
2 0
J192 5
3 0
4 0
0 0
1 0
2 0
J193 5
3 0
4 0
0 0
1 0
2 0
J194 5
3 0
4 0
0 0
1 0
2 0
J195 5
3 0
4 0
0 0
1 0
2 0
J196 5
3 0
4 0
0 0
1 0
2 0
J197 5
3 0
4 0
0 0
1 0
2 0
J198 5
3 0
4 0
0 0
1 0
2 0
J199 5
3 0
4 0
0 0
1 0
2 0
G0 3
0 0
1 0
2 0
